% demand
num_movements = 40;
loading_factor = [1650, 850, 1150, 1250, 850, 850, 1900, 1400, 2000, 1450, 1300, 1950, 1000, 1600, 850, 1000, 1700, 850, 2000, 1700, 1050, 1100, 1500, 1600, 1650, 1300, 1350, 1000, 1450, 2000, 1450, 1150, 1750, 1850, 950, 1600, 1600, 1850, 1950, 1750];
pickup_time = [0, 0, 0, 1, 1, 1, 1, 1, 1, 1, 1, 2, 2, 2, 2, 2, 2, 2, 2, 3, 4, 4, 4, 4, 4, 4, 4, 4, 7, 10, 10, 10, 10, 10, 10, 10, 12, 12, 12, 13];
delivery_time = [1, 1, 1, 2, 2, 2, 2, 2, 2, 2, 2, 3, 4, 3, 3, 3, 3, 3, 3, 4, 7, 7, 9, 7, 8, 7, 6, 8, 9, 12, 11, 11, 12, 14, 12, 14, 14, 13, 13, 14];

% transporter definition
total_capacity = 11000;
num_decks = 4;
capacity = [3000, 3000, 1000, 4000];

% ways out of decks
num_ways_out = 2;
paths_out = array3d(decks, ways_out, decks, [
% ways out of deck d1
2, 4, 0, 0, 3, 4, 0, 0, 

% ways out of deck d2
4, 0, 0, 0, 0, 0, 0, 0,	

% ways out of deck d3
4, 0, 0, 0, 0, 0, 0, 0,	

% ways out of deck d4
0, 0, 0, 0,	0, 0, 0, 0,	

]);

